Route #1: 34 48 7 40 2
Route #2: 20 11 24 47 26 18 4 25
Route #3: 6 27 12 33 36 49 9 37 44
Route #4: 43 16 5
Route #5: 1 28 29 19 32
Route #6: 13 38 46 14 30 31
Route #7: 3 35 39 45 41 23 22
Route #8: 10 21 42 17 8 15
Cost 1315
Time 0.118922
